1-20-38-57-56-65-74-75-76-68-60-51-33-24-23-13-12-1
1-37-47-66-83-94-95-86-77-59-1
1-30-39-49-69-79-89-98-99-90-70-50-31-21-1
1-11-32-61-88-97-96-87-78-40-1
1-48-58-67-85-84-93-92-91-82-73-64-55-46-1
1-10-19-28-29-41-42-54-45-44-36-35-27-16-17-18-9-8-7-6-5-4-1
1-3-14-15-25-26-34-43-53-63-72-81-80-71-62-52-22-2-1